(set-info :smt-lib-version 2.6)
(set-logic QF_LIA)
(set-info :category "industrial")
(set-info :status sat)
(declare-fun x0 () Int)
(declare-fun x1 () Int)
(declare-fun x10 () Int)
(declare-fun x11 () Int)
(declare-fun x12 () Int)
(declare-fun x13 () Int)
(declare-fun x14 () Int)
(declare-fun x15 () Int)
(declare-fun x16 () Int)
(declare-fun x17 () Int)
(declare-fun x18 () Int)
(declare-fun x19 () Int)
(declare-fun x2 () Int)
(declare-fun x20 () Int)
(declare-fun x21 () Int)
(declare-fun x22 () Int)
(declare-fun x23 () Int)
(declare-fun x24 () Int)
(declare-fun x25 () Int)
(declare-fun x26 () Int)
(declare-fun x27 () Int)
(declare-fun x28 () Int)
(declare-fun x29 () Int)
(declare-fun x3 () Int)
(declare-fun x30 () Int)
(declare-fun x31 () Int)
(declare-fun x32 () Int)
(declare-fun x33 () Int)
(declare-fun x34 () Int)
(declare-fun x35 () Int)
(declare-fun x36 () Int)
(declare-fun x37 () Int)
(declare-fun x38 () Int)
(declare-fun x39 () Int)
(declare-fun x4 () Int)
(declare-fun x5 () Int)
(declare-fun x6 () Int)
(declare-fun x7 () Int)
(declare-fun x8 () Int)
(declare-fun x9 () Int)
(assert (let ((?v_6 (* 0 x13)) (?v_24 (* 0 x10)) (?v_67 (* 0 x16)) (?v_7 (* 0 x17)) (?v_69 (* 0 x22)) (?v_34 (* 0 x23)) (?v_72 (* 0 x28)) (?v_10 (* 1 x29)) (?v_29 (* 0 x30)) (?v_9 (* 0 x36)) (?v_20 (* 0 x39)) (?v_11 (* 0 x9)) (?v_1 (* 1 x32)) (?v_18 (* 1 x37)) (?v_5 (* 0 x0)) (?v_43 (* 0 x1)) (?v_26 (* 0 x15)) (?v_13 (* 1 x16)) (?v_8 (* 1 x20)) (?v_105 (* 0 x21)) (?v_73 (* 0 x37)) (?v_51 (* 1 x39)) (?v_19 (* 0 x38)) (?v_21 (* 0 x6)) (?v_65 (* 1 x8)) (?v_25 (* 1 x12)) (?v_28 (* 0 x24)) (?v_14 (* 1 x25)) (?v_40 (* 1 x26)) (?v_85 (* 1 x27)) (?v_120 (* 2 x31)) (?v_87 (* 1 x33)) (?v_30 (* 0 x4)) (?v_75 (* 0 x5)) (?v_123 (* 1 x1)) (?v_41 (* 1 x34)) (?v_91 (* 1 x0)) (?v_31 (* 0 x12)) (?v_57 (* 0 x29)) (?v_62 (* 1 x10)) (?v_53 (* 1 x14)) (?v_56 (* 1 x2)) (?v_119 (* 1 x22)) (?v_83 (* 0 x11)) (?v_42 (* 0 x35)) (?v_32 (* 1 x13)) (?v_68 (* 0 x2)) (?v_33 (* 0 x20)) (?v_39 (* 0 x27)) (?v_92 (* 1 x19)) (?v_78 (* 0 x34)) (?v_76 (* 1 x7)) (?v_50 (* 1 x35)) (?v_45 (* 0 x14)) (?v_84 (* 1 x17)) (?v_70 (* 1 x21)) (?v_58 (* 0 x31)) (?v_106 (* 1 x36)) (?v_96 (* 0 x7)) (?v_112 (* 1 x30)) (?v_55 (* 0 x18)) (?v_71 (* 0 x26)) (?v_117 (* 1 x23)) (?v_59 (* 0 x32)) (?v_60 (* 1 x6)) (?v_97 (* 1 x9)) (?v_102 (* 0 x33)) (?v_74 (* 1 x4)) (?v_86 (* 0 x3)) (?v_79 (* 1 x31)) (?v_77 (* 0 x19)) (?v_90 (* 0 x25)) (?v_93 (* 1 x11)) (?v_88 (* 1 x5)) (?v_107 (* 0 x8)) (?v_124 (* 2 x38)) (?v_116 (* 2 x16)) (?v_111 (* 1 x3)) (?v_110 (* 1 x15)) (?v_101 (* 1 x28)) (?v_113 (* 1 x38)) (?v_118 (* 1 x24)) (?v_109 (* (- 1) x14)) (?v_61 (* (- 1) x15)) (?v_3 (* (- 2) x18)) (?v_47 (* (- 1) x2)) (?v_12 (* (- 1) x27)) (?v_36 (* (- 1) x3)) (?v_81 (* (- 1) x31)) (?v_63 (* (- 1) x35)) (?v_0 (* (- 1) x4)) (?v_4 (* (- 1) x6)) (?v_2 (* (- 2) x10)) (?v_44 (* (- 1) x13)) (?v_46 (* (- 1) x19)) (?v_95 (* (- 1) x26)) (?v_35 (* (- 1) x28)) (?v_49 (* (- 1) x30)) (?v_15 (* (- 1) x33)) (?v_16 (* (- 1) x36)) (?v_17 (* (- 1) x5)) (?v_48 (* (- 1) x21)) (?v_37 (* (- 1) x37)) (?v_23 (* (- 1) x39)) (?v_99 (* (- 2) x32)) (?v_80 (* (- 2) x13)) (?v_22 (* (- 1) x1)) (?v_54 (* (- 1) x17)) (?v_27 (* (- 1) x18)) (?v_82 (* (- 1) x32)) (?v_38 (* (- 1) x38)) (?v_114 (* (- 2) x15)) (?v_52 (* (- 1) x11)) (?v_104 (* (- 1) x29)) (?v_115 (* (- 1) x20)) (?v_66 (* (- 1) x25)) (?v_64 (* (- 1) x7)) (?v_89 (* (- 1) x12)) (?v_108 (* (- 1) x9)) (?v_98 (* (- 1) x10)) (?v_94 (* (- 1) x16)) (?v_122 (* (- 1) x23)) (?v_103 (* (- 1) x0)) (?v_100 (* (- 1) x8)) (?v_121 (* (- 2) x14))) (and (<= (+ (* (- 2) x1) (+ ?v_6 (+ ?v_109 (+ ?v_24 (+ ?v_61 (+ ?v_67 (+ ?v_3 (+ ?v_47 (+ ?v_12 (+ ?v_7 (+ ?v_69 (+ ?v_34 (+ ?v_72 (+ ?v_10 (+ ?v_36 (+ ?v_81 (+ ?v_63 (+ ?v_0 (+ ?v_4 (+ ?v_29 (+ ?v_9 (+ ?v_20 (+ ?v_11 (+ ?v_1 ?v_18)))))))))))))))))))))))) (- 1)) (<= (+ ?v_2 (+ ?v_5 (+ ?v_43 (+ (* (- 2) x11) (+ ?v_44 (+ ?v_26 (+ ?v_13 (+ ?v_46 (+ ?v_8 (+ ?v_95 (+ ?v_35 (+ ?v_105 (+ ?v_49 (+ ?v_15 (+ ?v_16 (+ ?v_73 (+ ?v_51 (+ ?v_0 (+ ?v_17 (+ ?v_19 (+ ?v_21 (+ ?v_1 (+ ?v_65 (* 2 x34)))))))))))))))))))))))) 0) (<= (+ ?v_2 (+ ?v_3 (+ ?v_48 (+ ?v_37 (+ ?v_23 (+ ?v_4 (+ ?v_5 (+ ?v_25 (+ ?v_6 (+ ?v_7 (+ ?v_8 (+ ?v_28 (+ ?v_9 (+ ?v_14 (+ ?v_40 (+ ?v_85 (+ ?v_10 (+ ?v_120 (+ ?v_99 (+ ?v_87 (+ ?v_30 (+ ?v_75 (+ ?v_11 (+ ?v_123 ?v_41)))))))))))))))))))))))) 0) (<= (+ ?v_80 (+ ?v_91 (+ ?v_22 (+ ?v_12 (+ ?v_31 (+ ?v_57 (+ ?v_62 (+ ?v_53 (+ ?v_13 (+ ?v_54 (+ ?v_27 (+ ?v_56 (+ ?v_119 (+ ?v_14 (+ ?v_82 (+ ?v_15 (+ (* (- 1) x34) (+ ?v_16 (+ ?v_0 (+ ?v_17 (+ ?v_83 (+ ?v_42 (+ ?v_18 (+ ?v_19 (+ ?v_20 ?v_21))))))))))))))))))))))))) (- 1)) (<= (+ ?v_22 (+ ?v_23 (+ ?v_24 (+ ?v_25 (+ ?v_32 (+ ?v_26 (+ ?v_27 (+ ?v_7 (+ ?v_68 (+ ?v_33 (+ ?v_39 (+ ?v_92 (+ ?v_38 (+ ?v_28 (+ ?v_29 (+ (* 2 x33) (+ ?v_78 (+ ?v_18 (+ ?v_30 (+ ?v_21 (+ ?v_76 (+ ?v_11 ?v_50)))))))))))))))))))))) 1) (<= (+ ?v_22 (+ ?v_24 (+ ?v_31 (+ ?v_32 (+ ?v_45 (+ ?v_27 (+ ?v_33 (+ ?v_34 (+ ?v_35 (+ ?v_84 (+ ?v_70 (+ ?v_36 (+ ?v_37 (+ ?v_38 (+ ?v_28 (+ ?v_39 (+ ?v_58 (+ ?v_40 (+ (* 2 x29) (+ ?v_41 (+ ?v_42 (+ ?v_106 (+ ?v_21 (+ ?v_96 (+ ?v_11 ?v_112))))))))))))))))))))))))) (- 1)) (<= (+ ?v_114 (+ ?v_43 (+ ?v_24 (+ ?v_52 (+ ?v_31 (+ ?v_44 (+ ?v_104 (+ ?v_45 (+ ?v_13 (+ ?v_7 (+ ?v_55 (+ ?v_46 (+ ?v_47 (+ ?v_33 (+ ?v_48 (+ ?v_71 (+ ?v_39 (+ ?v_117 (+ ?v_49 (+ ?v_15 (+ ?v_16 (+ ?v_17 (+ ?v_59 (+ ?v_30 (+ ?v_50 (+ ?v_51 (+ ?v_60 ?v_97))))))))))))))))))))))))))) 0) (<= (+ ?v_24 (+ ?v_52 (+ ?v_25 (+ ?v_32 (+ ?v_53 (+ (* 2 x15) (+ ?v_54 (+ ?v_55 (+ ?v_46 (+ ?v_115 (+ ?v_48 (+ (* (- 1) x22) (+ ?v_12 (+ ?v_23 (+ ?v_34 (+ ?v_66 (+ ?v_56 (+ ?v_64 (+ ?v_28 (+ ?v_57 (+ ?v_58 (+ ?v_59 (+ ?v_102 (+ ?v_9 (+ ?v_74 (+ ?v_60 ?v_11)))))))))))))))))))))))))) 0) (<= (+ ?v_61 (+ ?v_47 (+ ?v_5 (+ ?v_6 (+ ?v_62 (+ ?v_53 (+ ?v_7 (+ ?v_55 (+ ?v_33 (+ ?v_28 (+ ?v_39 (+ ?v_40 (+ (* 2 x25) (+ ?v_10 (+ ?v_86 (+ ?v_49 (+ ?v_79 (+ ?v_63 (+ ?v_20 (+ (* 2 x36) (+ ?v_64 ?v_65))))))))))))))))))))) 0) (<= (+ ?v_89 (+ ?v_66 (+ ?v_45 (+ ?v_67 (+ ?v_62 (+ ?v_77 (+ ?v_68 (+ ?v_69 (+ ?v_8 (+ ?v_70 (+ ?v_28 (+ ?v_71 (+ ?v_72 (+ (* 2 x3) (+ ?v_49 (+ ?v_15 (+ ?v_16 (+ ?v_108 (+ ?v_59 (+ ?v_73 (+ ?v_20 (+ ?v_74 (+ ?v_75 (+ ?v_60 ?v_76)))))))))))))))))))))))) 0) (<= (+ ?v_48 (+ ?v_5 (+ ?v_43 (+ ?v_67 (+ ?v_34 (+ ?v_90 (+ ?v_71 (+ ?v_39 (+ ?v_62 (+ ?v_25 (+ ?v_32 (+ ?v_7 (+ ?v_77 (+ ?v_28 (+ ?v_10 (+ (* 2 x28) (+ ?v_49 (+ ?v_15 (+ ?v_78 (+ ?v_73 (+ ?v_93 (+ ?v_79 (+ ?v_74 (+ ?v_88 ?v_60)))))))))))))))))))))))) (- 1)) (<= (+ ?v_80 (+ ?v_98 (+ ?v_61 (+ ?v_94 (+ ?v_66 (+ ?v_81 (+ ?v_16 (+ ?v_5 (+ ?v_82 (+ ?v_83 (+ ?v_45 (+ ?v_84 (+ ?v_56 (+ ?v_8 (+ ?v_70 (+ ?v_28 (+ ?v_71 (+ ?v_85 (+ ?v_72 (+ ?v_57 (+ ?v_86 (+ ?v_73 (+ ?v_107 (+ ?v_87 (+ ?v_21 (+ ?v_41 (+ ?v_88 (+ ?v_76 ?v_124)))))))))))))))))))))))))))) (- 1)) (<= (+ ?v_89 (+ ?v_122 (+ ?v_24 (+ ?v_6 (+ ?v_35 (+ ?v_55 (+ ?v_68 (+ ?v_33 (+ ?v_90 (+ ?v_71 (+ ?v_39 (+ (* (- 2) x3) (+ ?v_91 (+ ?v_116 (+ ?v_84 (+ ?v_92 (+ ?v_82 (+ ?v_16 (+ ?v_17 (+ ?v_42 (+ ?v_73 (+ ?v_19 (+ ?v_51 (+ ?v_21 ?v_93)))))))))))))))))))))))) 1) (<= (+ ?v_94 (+ (* (- 2) x2) (+ ?v_54 (+ ?v_95 (+ ?v_23 (+ ?v_4 (+ ?v_5 (+ ?v_31 (+ ?v_6 (+ ?v_45 (+ ?v_26 (+ ?v_55 (+ ?v_77 (+ ?v_34 (+ ?v_70 (+ ?v_28 (+ ?v_57 (+ ?v_9 (+ ?v_30 (+ ?v_93 (+ ?v_14 (+ ?v_111 ?v_65)))))))))))))))))))))) 1) (<= (+ (* (- 2) x24) (+ ?v_103 (+ ?v_48 (+ ?v_43 (+ ?v_31 (+ ?v_69 (+ ?v_34 (+ ?v_53 (+ ?v_110 (+ ?v_55 (+ ?v_77 (+ ?v_68 (+ ?v_14 (+ ?v_101 (+ ?v_86 (+ ?v_49 (+ ?v_81 (+ ?v_0 (+ ?v_100 (+ ?v_41 (+ ?v_42 (+ ?v_9 (+ ?v_73 (+ ?v_96 (+ ?v_88 ?v_97))))))))))))))))))))))))) 1) (<= (+ ?v_98 (+ (* (- 2) x19) (+ ?v_47 (+ (* (- 1) x24) (+ ?v_5 (+ ?v_99 (+ ?v_100 (+ ?v_43 (+ ?v_83 (+ ?v_26 (+ ?v_55 (+ ?v_70 (+ ?v_101 (+ (* 2 x17) (+ ?v_86 (+ ?v_29 (+ ?v_102 (+ ?v_30 (+ ?v_75 (+ ?v_96 (+ ?v_41 (+ ?v_50 (+ ?v_18 (+ ?v_113 (+ (* 2 x6) (* 2 x9)))))))))))))))))))))))))) 1) (<= (+ ?v_103 (+ ?v_46 (+ ?v_47 (+ ?v_104 (+ ?v_81 (+ ?v_82 (+ ?v_38 (+ ?v_17 (+ ?v_4 (+ ?v_43 (+ ?v_83 (+ ?v_45 (+ ?v_67 (+ ?v_7 (+ ?v_105 (+ ?v_69 (+ (* 2 x23) (+ ?v_72 (+ ?v_29 (+ ?v_20 (+ ?v_106 (+ (* 2 x37) (+ ?v_30 (+ ?v_96 (+ ?v_107 ?v_97))))))))))))))))))))))))) 1) (<= (+ ?v_89 (+ ?v_44 (+ ?v_46 (+ ?v_38 (+ ?v_108 (+ ?v_5 (+ ?v_83 (+ ?v_53 (+ ?v_26 (+ ?v_67 (+ ?v_69 (+ ?v_90 (+ (* 1 x18) (+ ?v_56 (+ (* 2 x20) (+ (* 2 x21) (+ ?v_118 (+ ?v_29 (+ ?v_58 (+ ?v_59 (+ ?v_102 (+ ?v_78 (+ ?v_21 (+ ?v_50 (+ ?v_88 ?v_76))))))))))))))))))))))))) 0) (<= (+ ?v_44 (+ ?v_109 (+ (* (- 2) x6) (+ ?v_47 (+ ?v_66 (+ ?v_95 (+ ?v_81 (+ ?v_17 (+ ?v_83 (+ ?v_25 (+ ?v_67 (+ ?v_110 (+ ?v_7 (+ ?v_55 (+ ?v_8 (+ ?v_105 (+ ?v_39 (+ ?v_72 (+ ?v_57 (+ ?v_111 (+ ?v_87 (+ ?v_78 (+ ?v_42 (+ ?v_9 (+ ?v_73 (+ ?v_20 (+ ?v_11 (+ ?v_112 (+ ?v_113 (* 2 x4)))))))))))))))))))))))))))))) 1) (<= (+ ?v_121 (+ ?v_114 (+ ?v_103 (+ ?v_89 (+ ?v_115 (+ ?v_35 (+ ?v_15 (+ ?v_23 (+ ?v_108 (+ ?v_83 (+ ?v_116 (+ ?v_68 (+ ?v_117 (+ ?v_90 (+ ?v_71 (+ ?v_39 (+ ?v_9 (+ ?v_10 (+ ?v_73 (+ ?v_21 (+ ?v_118 (+ ?v_50 (+ ?v_113 (+ ?v_74 (+ ?v_65 (* 2 x30)))))))))))))))))))))))))) 0) (<= (+ (* (- 2) x12) (+ ?v_98 (+ ?v_44 (+ ?v_94 (+ ?v_54 (+ ?v_36 (+ ?v_15 (+ ?v_16 (+ ?v_37 (+ ?v_38 (+ ?v_100 (+ ?v_5 (+ ?v_26 (+ ?v_71 (+ ?v_57 (+ ?v_70 (+ ?v_119 (+ ?v_14 (+ ?v_101 (+ ?v_29 (+ ?v_120 (+ ?v_78 (+ ?v_42 ?v_21))))))))))))))))))))))) (- 1)) (<= (+ ?v_5 (+ ?v_22 (+ ?v_24 (+ ?v_67 (+ ?v_110 (+ ?v_27 (+ ?v_33 (+ ?v_34 (+ ?v_104 (+ ?v_16 (+ ?v_84 (+ ?v_56 (+ ?v_119 (+ ?v_14 (+ ?v_85 (+ ?v_86 (+ ?v_38 (+ ?v_17 (+ ?v_29 (+ ?v_79 (+ ?v_59 (+ ?v_102 (+ ?v_78 (+ ?v_42 (+ ?v_20 (+ ?v_107 (+ ?v_93 (+ ?v_18 ?v_74)))))))))))))))))))))))))))) (- 1)) (<= (+ ?v_121 (+ ?v_47 (+ ?v_122 (+ ?v_66 (+ ?v_12 (+ ?v_0 (+ (* (- 2) x7) (+ ?v_5 (+ ?v_24 (+ ?v_67 (+ ?v_33 (+ (* 2 x18) (+ ?v_92 (+ ?v_70 (+ ?v_28 (+ ?v_57 (+ ?v_86 (+ ?v_123 (+ ?v_29 (+ ?v_42 (+ ?v_21 (+ ?v_93 (+ ?v_87 (+ ?v_18 ?v_88)))))))))))))))))))))))) 1) (<= (+ ?v_89 (+ ?v_24 (+ ?v_6 (+ ?v_26 (+ ?v_67 (+ ?v_54 (+ ?v_27 (+ ?v_8 (+ ?v_34 (+ ?v_90 (+ ?v_71 (+ ?v_85 (+ ?v_72 (+ ?v_10 (+ ?v_36 (+ ?v_79 (+ ?v_16 (+ ?v_73 (+ ?v_20 (+ (* (- 3) x5) (+ ?v_78 (+ ?v_42 (+ ?v_74 (+ ?v_65 ?v_124)))))))))))))))))))))))) 0) (<= (+ ?v_25 (+ ?v_6 (+ (* (- 2) x16) (+ ?v_33 (+ ?v_69 (+ ?v_95 (+ ?v_23 (+ ?v_53 (+ ?v_110 (+ ?v_55 (+ ?v_57 (+ ?v_70 (+ ?v_86 (+ ?v_87 (+ ?v_106 (+ ?v_17 (+ ?v_4 (+ ?v_108 (+ ?v_91 (+ ?v_78 (+ ?v_96 ?v_93))))))))))))))))))))) 0))))
(check-sat)
(exit)
